 $CONTRL COORD=UNIQUE SCFTYP=RHF RUNTYP=OPTIMIZE MULT=1
 ISPHER=1 ICHARG=0 MAXIT=100 $END
 $SYSTEM MWORDS=100 TIMLIM=600 $END
 $BASIS #BASIS# $END
 $GUESS GUESS=HUCKEL $END
 $SCF DIRSCF=.t. FDIFF=.f. DIIS=.t. $END
 $STATPT NSTEP=500 PROJCT=.f. IHREP=20 HSSEND=.t. $END
