 $CONTRL COORD=UNIQUE SCFTYP=RHF DFTTYP=#FUNCTIONAL# RUNTYP=OPTIMIZE ISPHER=1
 ICHARG=-1 MAXIT=100 $END
 $SYSTEM MWORDS=100 $END
 $BASIS #BASIS# $END
 $GUESS GUESS=HUCKEL $END
 $SCF NCONV=5 $END
 $STATPT NSTEP=50 OPTTOL=0.00045 $END

