 $CONTRL COORD=UNIQUE SCFTYP=RHF DFTTYP=#FUNCTIONAL# RUNTYP=OPTIMIZE MULT=1 ISPHER=1
   ICHARG=0 MAXIT=100 $END
 $SYSTEM MWORDS=100 TIMLIM=60 TIMLIM=110 $END
 $BASIS #BASIS# $END
 $GUESS GUESS=HUCKEL $END
 $SCF DIRSCF=.t. FDIFF=.f. CONV=1.0d-05 SOSCF=.t. $END
 $DFT SWOFF=5.0d-3 SWITCH=3.0d-4 GTHRE=1000.0 IDCVER=3 THRESH=1.0d-15 NRAD=126 
 NLEB=770 NRAD0=126 NLEB0=770 $END
 $STATPT NSTEP=50 OPTTOL=0.00045 $END

