 $CONTRL COORD=UNIQUE SCFTYP=RHF DFTTYP=B3LYPV3 RUNTYP=OPTIMIZE
 ICHARG=1 MAXIT=100 $END
 $SYSTEM MWORDS=100 $END
 $BASIS GBASIS=N21 NGAUSS=3 $END
 $GUESS GUESS=HUCKEL $END
 $SCF NCONV=5 $END
 $STATPT NSTEP=50 OPTTOL=0.00045 $END

